% Auto-generated by scripts/generate_dzn.py
% problem_type   = regex
% instance       = regex_75
% source_json    = instances_json/1_medium_blowup/regex_75.json
% blowup         = 5.0
% representation = DFA

mode = 0;

var_count = 17;
Q = 45;
S = 3;
q0 = 1;
F = {29, 30, 31, 32, 33, 34, 35, 36, 37, 38, 39, 40, 41, 42, 43, 44, 45};
d_dfa = array2d(1..45, 1..3, [
  2, 1, 1,
  3, 1, 1,
  4, 1, 1,
  6, 5, 5,
  8, 7, 7,
  10, 9, 9,
  12, 11, 11,
  13, 11, 11,
  15, 14, 14,
  17, 16, 16,
  19, 18, 18,
  20, 18, 18,
  21, 18, 18,
  23, 22, 22,
  24, 22, 22,
  26, 25, 25,
  28, 27, 27,
  30, 29, 29,
  31, 29, 29,
  32, 29, 29,
  34, 33, 33,
  36, 35, 35,
  37, 35, 35,
  38, 35, 35,
  40, 39, 39,
  41, 39, 39,
  43, 42, 42,
  45, 44, 44,
  2, 1, 1,
  3, 1, 1,
  4, 1, 1,
  6, 5, 5,
  8, 7, 7,
  10, 9, 9,
  30, 29, 29,
  31, 29, 29,
  32, 29, 29,
  34, 33, 33,
  36, 35, 35,
  37, 35, 35,
  38, 35, 35,
  40, 39, 39,
  41, 39, 39,
  43, 42, 42,
  45, 44, 44
]);
d_nfa = array2d(1..45, 1..3, [
  {}, {}, {},
  {}, {}, {},
  {}, {}, {},
  {}, {}, {},
  {}, {}, {},
  {}, {}, {},
  {}, {}, {},
  {}, {}, {},
  {}, {}, {},
  {}, {}, {},
  {}, {}, {},
  {}, {}, {},
  {}, {}, {},
  {}, {}, {},
  {}, {}, {},
  {}, {}, {},
  {}, {}, {},
  {}, {}, {},
  {}, {}, {},
  {}, {}, {},
  {}, {}, {},
  {}, {}, {},
  {}, {}, {},
  {}, {}, {},
  {}, {}, {},
  {}, {}, {},
  {}, {}, {},
  {}, {}, {},
  {}, {}, {},
  {}, {}, {},
  {}, {}, {},
  {}, {}, {},
  {}, {}, {},
  {}, {}, {},
  {}, {}, {},
  {}, {}, {},
  {}, {}, {},
  {}, {}, {},
  {}, {}, {},
  {}, {}, {},
  {}, {}, {},
  {}, {}, {},
  {}, {}, {},
  {}, {}, {},
  {}, {}, {}
]);
